12 30
2 5 7 12
1 2 6 12
4 5 8 10
6 7 9
2 6 9
2 3 4 9
2 3 6 7
1 3 7 12
2 4 8 9
1 3 11
2 4 7 11
5 7 8 10
1 3 6 10
2 9 10 11
1 8 9
5 6 10
4 5 11 12
4 6 8
2 5 7
2 4 5 9
3 6 8
5 6 7 11
6 8 12
5 6 7 11
2 3 5
3 4 12
6 9 11
2 3 7 8
2 3 4
1 5 9 11
8 6 4 8 4 4 6 7 6 7 8 7 5 5 6 4 8 4 5 8 7 7 5 8 6 6 8 5 7 7
